bacp/03/params/inst-538-1-960833342.param
language Essence 1.3
$ generated by bacp-gen.pl with seed 960833342
$ edge probability 0.127
$ course loads in range 2..8
letting n_courses be 110
letting n_periods be 22
letting load_per_period_lb be 5
letting load_per_period_ub be 24
letting courses_per_period_lb be 5
letting courses_per_period_ub be 8
letting course_load be function(
1 --> 7,
2 --> 7,
3 --> 3,
4 --> 2,
5 --> 4,
6 --> 7,
7 --> 7,
8 --> 2,
9 --> 2,
10 --> 6,
11 --> 6,
12 --> 3,
13 --> 5,
14 --> 7,
15 --> 3,
16 --> 6,
17 --> 7,
18 --> 2,
19 --> 2,
20 --> 8,
21 --> 4,
22 --> 3,
23 --> 6,
24 --> 7,
25 --> 3,
26 --> 7,
27 --> 5,
28 --> 7,
29 --> 3,
30 --> 8,
31 --> 7,
32 --> 2,
33 --> 7,
34 --> 3,
35 --> 8,
36 --> 3,
37 --> 6,
38 --> 7,
39 --> 6,
40 --> 7,
41 --> 3,
42 --> 3,
43 --> 5,
44 --> 4,
45 --> 2,
46 --> 6,
47 --> 3,
48 --> 2,
49 --> 4,
50 --> 4,
51 --> 4,
52 --> 4,
53 --> 2,
54 --> 3,
55 --> 6,
56 --> 7,
57 --> 7,
58 --> 6,
59 --> 4,
60 --> 5,
61 --> 7,
62 --> 6,
63 --> 3,
64 --> 6,
65 --> 7,
66 --> 7,
67 --> 2,
68 --> 6,
69 --> 2,
70 --> 7,
71 --> 2,
72 --> 7,
73 --> 3,
74 --> 3,
75 --> 6,
76 --> 7,
77 --> 3,
78 --> 2,
79 --> 4,
80 --> 5,
81 --> 2,
82 --> 4,
83 --> 5,
84 --> 4,
85 --> 8,
86 --> 3,
87 --> 4,
88 --> 7,
89 --> 4,
90 --> 3,
91 --> 6,
92 --> 8,
93 --> 2,
94 --> 5,
95 --> 5,
96 --> 4,
97 --> 3,
98 --> 4,
99 --> 5,
100 --> 8,
101 --> 7,
102 --> 3,
103 --> 6,
104 --> 4,
105 --> 6,
106 --> 4,
107 --> 3,
108 --> 6,
109 --> 4,
110 --> 3
)
letting prerequisite be relation (
(25,31),
(7,32),
(5,33),
(15,34),
(1,35),
(4,36),
(3,37),
(11,38),
(17,39),
(24,40),
(1,41),
(16,42),
(21,43),
(5,44),
(4,45),
(24,46),
(13,47),
(17,48),
(16,49),
(6,50),
(11,51),
(16,52),
(16,53),
(9,54),
(8,55),
(4,56),
(15,57),
(16,58),
(12,59),
(25,60),
(7,61),
(19,62),
(18,63),
(1,64),
(3,65),
(20,66),
(27,67),
(29,68),
(3,69),
(16,70),
(27,71),
(24,72),
(24,73),
(30,74),
(13,75),
(28,76),
(18,77),
(7,78),
(29,79),
(6,80),
(10,81),
(3,82),
(24,83),
(21,84),
(15,85),
(18,86),
(16,87),
(30,88),
(14,89),
(11,90),
(49,91),
(34,92),
(36,93),
(42,94),
(72,95),
(47,96),
(55,97),
(83,98),
(54,99),
(55,100),
(87,101),
(74,102),
(55,103),
(58,104),
(84,105),
(68,106),
(71,107),
(50,108),
(46,109),
(43,110),
(73,107),
(7,38),
(19,74),
(14,38),
(45,94),
(49,101),
(23,39),
(4,58),
(16,80),
(43,98),
(19,47),
(23,80),
(20,46),
(10,90),
(17,54),
(84,100),
(29,69),
(20,75),
(75,105),
(29,62),
(23,38),
(55,110),
(55,108),
(25,61),
(62,108),
(27,76),
(73,93),
(12,61),
(86,110),
(18,76),
(3,78),
(15,75),
(15,86),
(3,90),
(73,101),
(34,96),
(40,106),
(50,101),
(12,38),
(80,97),
(4,53),
(7,54),
(15,74),
(21,51),
(45,108),
(41,103),
(38,102),
(35,107),
(13,67),
(46,91),
(11,69),
(2,79),
(13,73),
(24,42),
(54,109),
(22,52),
(71,93),
(2,70),
(78,103),
(19,84),
(24,37),
(9,88),
(69,106),
(41,93),
(38,96),
(69,99),
(4,39),
(29,57),
(55,98),
(15,43),
(24,71),
(24,87),
(18,85),
(52,103),
(76,99),
(65,106),
(8,52),
(18,31),
(21,90),
(20,36),
(6,83),
(15,71),
(16,89),
(13,60),
(77,91),
(8,41),
(29,45),
(58,102),
(4,49),
(46,104),
(76,96),
(14,58),
(2,33),
(22,31),
(28,34),
(18,57),
(44,105),
(8,82),
(43,102),
(17,55),
(49,95),
(45,96),
(56,106),
(17,57),
(60,104),
(78,109),
(83,107),
(44,91),
(25,62),
(45,92),
(1,55),
(71,101),
(56,100),
(67,98),
(19,80),
(1,89),
(1,90),
(82,93),
(9,32),
(15,37),
(28,41),
(9,59),
(44,96),
(54,96),
(13,46),
(83,104),
(72,92),
(63,107),
(52,109),
(10,53),
(60,107),
(12,70),
(6,44),
(77,104),
(87,100),
(54,98),
(63,110),
(8,48),
(31,102),
(68,94),
(16,90),
(57,91),
(26,50),
(15,73),
(2,84),
(24,68),
(24,77),
(9,68),
(56,101),
(31,110),
(32,97),
(27,66),
(6,77),
(75,110),
(17,46),
(29,58),
(21,46),
(67,93),
(2,69),
(71,109),
(39,99),
(79,103),
(5,81),
(9,85),
(17,36),
(12,33),
(38,93),
(25,32),
(29,33),
(52,95),
(8,54),
(2,68),
(5,67),
(9,45),
(82,96),
(19,50),
(61,92),
(49,106),
(34,107),
(28,80),
(29,52),
(21,54),
(77,101),
(24,62),
(55,94),
(52,100),
(40,105),
(26,63),
(16,35),
(58,95),
(48,101),
(58,101),
(6,39),
(80,92),
(42,104),
(24,53),
(7,56),
(45,104),
(9,49),
(14,37),
(11,65),
(86,100),
(29,63),
(54,106),
(9,53),
(66,110),
(14,52),
(16,32),
(16,71),
(2,46),
(46,96),
(6,86),
(24,57),
(17,49),
(86,99),
(87,97),
(33,93),
(27,62),
(9,56),
(59,110),
(14,53),
(88,96),
(7,39),
(50,98),
(75,97),
(89,102),
(13,85),
(60,106),
(75,103),
(67,96),
(23,58),
(26,79),
(48,109),
(32,91),
(21,78),
(89,105),
(61,96),
(38,106),
(12,71),
(17,62),
(9,40),
(31,92),
(68,91),
(51,94),
(2,82),
(12,64),
(5,84),
(24,54),
(13,76),
(26,43),
(13,49),
(79,93),
(44,100),
(67,109),
(4,40),
(31,94),
(37,97),
(14,86),
(38,92),
(26,35),
(17,53),
(10,83),
(77,97),
(23,72),
(42,99),
(29,73),
(86,107),
(37,96),
(55,101),
(30,59),
(29,85),
(25,68),
(29,87),
(14,84),
(90,104),
(49,108),
(11,36),
(73,103),
(17,72),
(88,109),
(11,31),
(10,48),
(64,103),
(42,97),
(6,62),
(24,64),
(17,59),
(1,44),
(26,84),
(37,106),
(19,56),
(49,93),
(8,70),
(24,88),
(85,107),
(56,103),
(88,107),
(5,86),
(52,94),
(24,35),
(12,39)
)

