bacp/param_dec/inst-538-1-960833342.eprime-param
language ESSENCE' 1.0

letting n_courses be 110
letting n_periods be 22
letting prerequisite_RelationAsSet_Explicit_1 be
        [1, 1, 1, 1, 1, 1, 1, 2, 2, 2, 2, 2, 2, 2, 2, 3, 3, 3, 3, 3, 3, 4, 4, 4, 4, 4, 4, 4, 4, 5, 5, 5, 5, 5, 5, 6, 6,
         6, 6, 6, 6, 6, 6, 7, 7, 7, 7, 7, 7, 7, 8, 8, 8, 8, 8, 8, 8, 9, 9, 9, 9, 9, 9, 9, 9, 9, 9, 9, 10, 10, 10, 10,
         10, 11, 11, 11, 11, 11, 11, 11, 12, 12, 12, 12, 12, 12, 12, 12, 13, 13, 13, 13, 13, 13, 13, 13, 13, 14, 14, 14,
         14, 14, 14, 14, 14, 15, 15, 15, 15, 15, 15, 15, 15, 15, 15, 16, 16, 16, 16, 16, 16, 16, 16, 16, 16, 16, 16, 16,
         17, 17, 17, 17, 17, 17, 17, 17, 17, 17, 17, 17, 18, 18, 18, 18, 18, 18, 18, 19, 19, 19, 19, 19, 19, 19, 20, 20,
         20, 20, 21, 21, 21, 21, 21, 21, 21, 22, 22, 23, 23, 23, 23, 23, 24, 24, 24, 24, 24, 24, 24, 24, 24, 24, 24, 24,
         24, 24, 24, 24, 24, 24, 25, 25, 25, 25, 25, 25, 26, 26, 26, 26, 26, 26, 27, 27, 27, 27, 27, 28, 28, 28, 28, 29,
         29, 29, 29, 29, 29, 29, 29, 29, 29, 29, 29, 29, 30, 30, 30, 31, 31, 31, 31, 32, 32, 33, 34, 34, 34, 35, 36, 37,
         37, 37, 38, 38, 38, 38, 38, 39, 40, 40, 41, 41, 42, 42, 42, 42, 43, 43, 43, 44, 44, 44, 44, 45, 45, 45, 45, 45,
         46, 46, 46, 46, 47, 48, 48, 49, 49, 49, 49, 49, 49, 50, 50, 50, 51, 52, 52, 52, 52, 52, 54, 54, 54, 54, 54, 55,
         55, 55, 55, 55, 55, 55, 55, 56, 56, 56, 56, 57, 58, 58, 58, 58, 59, 60, 60, 60, 61, 61, 62, 63, 63, 64, 65, 66,
         67, 67, 67, 67, 68, 68, 68, 69, 69, 71, 71, 71, 71, 72, 72, 73, 73, 73, 73, 74, 75, 75, 75, 75, 76, 76, 77, 77,
         77, 77, 78, 78, 79, 79, 80, 80, 82, 82, 83, 83, 83, 84, 84, 85, 86, 86, 86, 86, 87, 87, 87, 88, 88, 88, 89, 89,
         90; int(1..381)]
letting prerequisite_RelationAsSet_Explicit_2 be
        [35, 41, 44, 55, 64, 89, 90, 33, 46, 68, 69, 70, 79, 82, 84, 37, 65, 69, 78, 82, 90, 36, 39, 40, 45, 49, 53, 56,
         58, 33, 44, 67, 81, 84, 86, 39, 44, 50, 62, 77, 80, 83, 86, 32, 38, 39, 54, 56, 61, 78, 41, 48, 52, 54, 55, 70,
         82, 32, 40, 45, 49, 53, 54, 56, 59, 68, 85, 88, 48, 53, 81, 83, 90, 31, 36, 38, 51, 65, 69, 90, 33, 38, 39, 59,
         61, 64, 70, 71, 46, 47, 49, 60, 67, 73, 75, 76, 85, 37, 38, 52, 53, 58, 84, 86, 89, 34, 37, 43, 57, 71, 73, 74,
         75, 85, 86, 32, 35, 42, 49, 52, 53, 58, 70, 71, 80, 87, 89, 90, 36, 39, 46, 48, 49, 53, 54, 55, 57, 59, 62, 72,
         31, 57, 63, 76, 77, 85, 86, 47, 50, 56, 62, 74, 80, 84, 36, 46, 66, 75, 43, 46, 51, 54, 78, 84, 90, 31, 52, 38,
         39, 58, 72, 80, 35, 37, 40, 42, 46, 53, 54, 57, 62, 64, 68, 71, 72, 73, 77, 83, 87, 88, 31, 32, 60, 61, 62, 68,
         35, 43, 50, 63, 79, 84, 62, 66, 67, 71, 76, 34, 41, 76, 80, 33, 45, 52, 57, 58, 62, 63, 68, 69, 73, 79, 85, 87,
         59, 74, 88, 92, 94, 102, 110, 91, 97, 93, 92, 96, 107, 107, 93, 96, 97, 106, 92, 93, 96, 102, 106, 99, 105,
         106, 93, 103, 94, 97, 99, 104, 98, 102, 110, 91, 96, 100, 105, 92, 94, 96, 104, 108, 91, 96, 104, 109, 96, 101,
         109, 91, 93, 95, 101, 106, 108, 98, 101, 108, 94, 94, 95, 100, 103, 109, 96, 98, 99, 106, 109, 94, 97, 98, 100,
         101, 103, 108, 110, 100, 101, 103, 106, 91, 95, 101, 102, 104, 110, 104, 106, 107, 92, 96, 108, 107, 110, 103,
         106, 110, 93, 96, 98, 109, 91, 94, 106, 99, 106, 93, 101, 107, 109, 92, 95, 93, 101, 103, 107, 102, 97, 103,
         105, 110, 96, 99, 91, 97, 101, 104, 103, 109, 93, 103, 92, 97, 93, 96, 98, 104, 107, 100, 105, 107, 99, 100,
         107, 110, 97, 100, 101, 96, 107, 109, 102, 105, 104;
             int(1..381)]
letting course_load_Function1D be
        [7, 7, 3, 2, 4, 7, 7, 2, 2, 6, 6, 3, 5, 7, 3, 6, 7, 2, 2, 8, 4, 3, 6, 7, 3, 7, 5, 7, 3, 8, 7, 2, 7, 3, 8, 3, 6,
         7, 6, 7, 3, 3, 5, 4, 2, 6, 3, 2, 4, 4, 4, 4, 2, 3, 6, 7, 7, 6, 4, 5, 7, 6, 3, 6, 7, 7, 2, 6, 2, 7, 2, 7, 3, 3,
         6, 7, 3, 2, 4, 5, 2, 4, 5, 4, 8, 3, 4, 7, 4, 3, 6, 8, 2, 5, 5, 4, 3, 4, 5, 8, 7, 3, 6, 4, 6, 4, 3, 6, 4, 3;
             int(1..110)]
letting load_per_period_ub be 24
letting load_per_period_lb be 5
letting courses_per_period_ub be 8
letting courses_per_period_lb be 5
letting fin1 be 381
letting fin2 be 110
letting fin3 be 8
